(set-info :origin "SVCOMP13 benchmarks generated by Arie Gurfinkel")
(set-info :status unsat)
(set-logic HORN)
(declare-fun cp-rel-entry () Bool)
(declare-fun cp-rel-__UFO__0
             (Real
              Real
              Real
              Real
              Real
              Real
              Real
              Real
              Real
              Real
              Real
              Real
              Real
              Real
              Real
              Real
              Real
              Real
              Real
              Bool
              Real
              Bool
              Real
              Bool
              Real
              Real)
             Bool)
(declare-fun cp-rel-UnifiedReturnBlock () Bool)
(declare-fun cp-rel-bb.i
             (Real
              Real
              Real
              Real
              Real
              Real
              Real
              Real
              Real
              Real
              Real
              Real
              Real
              Real
              Real
              Real
              Real
              Real
              Real)
             Bool)
(assert |cp-rel-entry|)
(assert (forall ((?A Real) (?B Real) (?C Real) (?D Real) (?E Real) (?F Real) (?G Real) (?H Real) (?I Real) (?J Real) (?K Real) (?L Real) (?M Real) (?N Real) (?O Real) (?P Real) (?Q Real) (?R Real) (?S Real) (?T Bool) )(let (($x46759 (|cp-rel-bb.i| ?A ?B ?C ?D ?E ?F ?G ?H ?I ?J ?K ?L ?M ?N ?O ?P ?Q ?R ?S)))
(let (($x303146 (= ?T true)))
(let (($x839412 (and |cp-rel-entry| (<= ?S 0.0) (>= ?R 0.0) (<= ?R 0.0) (>= ?Q 0.0) (<= ?Q 0.0) (>= ?P 0.0) (<= ?P 0.0) (>= ?O 456.0) (<= ?O 456.0) (>= ?N 123.0) (<= ?N 123.0) (>= ?M 0.0) (<= ?M 0.0) (>= ?L 0.0) (<= ?L 0.0) (>= ?K 0.0) (<= ?K 0.0) (>= ?J 0.0) (<= ?J 0.0) (>= ?I 0.0) (<= ?I 0.0) (>= ?H 0.0) (<= ?H 0.0) (>= ?G 0.0) (<= ?G 0.0) (>= ?F 0.0) (<= ?F 0.0) (>= ?E 0.0) (<= ?E 0.0) (>= ?D 0.0) (<= ?D 0.0) (>= ?C 0.0) (<= ?C 0.0) (>= ?B 0.0) (<= ?B 0.0) (>= ?A 0.0) (<= ?A 0.0) $x303146 (>= ?S 0.0))))
(=> $x839412 $x46759)))))
)
(assert (forall ((?A Real) (?B Real) (?C Real) (?D Real) (?E Real) (?F Real) (?G Real) (?H Real) (?I Real) (?J Real) (?K Real) (?L Real) (?M Real) (?N Real) (?O Real) (?P Real) (?Q Real) (?R Real) (?S Real) (?T Real) (?U Real) (?V Real) (?W Real) (?X Real) (?Y Real) (?Z Real) (?A1 Real) (?B1 Real) (?C1 Real) (?D1 Real) (?E1 Real) (?F1 Real) (?G1 Real) (?H1 Real) (?I1 Real) (?J1 Real) (?K1 Real) (?L1 Real) (?M1 Bool) (?N1 Bool) (?O1 Bool) (?P1 Bool) (?Q1 Bool) (?R1 Bool) (?S1 Bool) (?T1 Bool) (?U1 Bool) (?V1 Bool) (?W1 Bool) (?X1 Bool) (?Y1 Bool) (?Z1 Bool) (?A2 Bool) (?B2 Bool) (?C2 Bool) (?D2 Bool) (?E2 Bool) (?F2 Bool) (?G2 Bool) (?H2 Bool) (?I2 Bool) (?J2 Bool) (?K2 Bool) (?L2 Bool) (?M2 Bool) (?N2 Bool) (?O2 Bool) (?P2 Bool) (?Q2 Bool) (?R2 Bool) (?S2 Bool) (?T2 Bool) (?U2 Bool) (?V2 Bool) (?W2 Bool) (?X2 Bool) (?Y2 Bool) (?Z2 Bool) (?A3 Bool) (?B3 Bool) (?C3 Bool) (?D3 Bool) (?E3 Bool) (?F3 Bool) (?G3 Bool) (?H3 Bool) (?I3 Bool) (?J3 Bool) (?K3 Bool) (?L3 Bool) (?M3 Bool) (?N3 Bool) (?O3 Bool) (?P3 Bool) (?Q3 Bool) (?R3 Bool) (?S3 Bool) (?T3 Bool) (?U3 Bool) (?V3 Bool) (?W3 Bool) (?X3 Bool) (?Y3 Bool) (?Z3 Bool) (?A4 Bool) (?B4 Bool) (?C4 Bool) (?D4 Bool) (?E4 Bool) (?F4 Bool) (?G4 Bool) (?H4 Bool) (?I4 Bool) (?J4 Bool) (?K4 Bool) (?L4 Bool) (?M4 Bool) (?N4 Bool) (?O4 Real) (?P4 Real) (?Q4 Real) (?R4 Real) (?S4 Real) (?T4 Real) (?U4 Real) (?V4 Real) (?W4 Real) (?X4 Real) (?Y4 Real) (?Z4 Real) )(let (($x175192 (|cp-rel-bb.i| ?T ?U ?V ?W ?X ?Y ?Z ?A1 ?B1 ?C1 ?D1 ?E1 ?F1 ?G1 ?H1 ?I1 ?J1 ?K1 ?L1)))
(let (($x271771 (not ?P3)))
(let (($x149881 (or $x271771 ?Q3)))
(let (($x802206 (not ?D4)))
(let (($x545036 (or $x802206 ?E4)))
(let (($x231818 (>= ?L1 ?S)))
(let (($x302793 (<= ?L1 ?S)))
(let (($x312750 (>= ?J1 ?Q)))
(let (($x357550 (<= ?J1 ?Q)))
(let (($x837632 (>= ?H1 ?O)))
(let (($x366180 (<= ?H1 ?O)))
(let (($x382201 (>= ?G1 ?N)))
(let (($x421542 (<= ?G1 ?N)))
(let (($x466806 (>= ?F1 ?M)))
(let (($x482167 (<= ?F1 ?M)))
(let (($x523666 (>= ?D1 ?K)))
(let (($x204773 (<= ?D1 ?K)))
(let (($x525996 (>= ?C1 ?J)))
(let (($x403802 (<= ?C1 ?J)))
(let (($x810473 (>= ?B1 ?I)))
(let (($x685761 (<= ?B1 ?I)))
(let (($x174518 (>= ?A1 ?H)))
(let (($x538579 (<= ?A1 ?H)))
(let (($x463167 (>= ?Z ?G)))
(let (($x202421 (<= ?Z ?G)))
(let (($x838831 (>= ?Y ?F)))
(let (($x688846 (<= ?Y ?F)))
(let (($x254012 (>= ?X ?E)))
(let (($x403191 (<= ?X ?E)))
(let (($x838977 (>= ?W ?D)))
(let (($x388352 (<= ?W ?D)))
(let (($x570243 (>= ?V ?C)))
(let (($x234096 (<= ?V ?C)))
(let (($x592865 (>= ?U ?B)))
(let (($x265979 (<= ?U ?B)))
(let (($x241616 (>= ?T ?O4)))
(let (($x130280 (<= ?T ?O4)))
(let (($x37808 (and ?X1 $x130280 $x241616 $x265979 $x592865 $x234096 $x570243 $x388352 $x838977 $x403191 $x254012 $x688846 $x838831 $x202421 $x463167 $x538579 $x174518 $x685761 $x810473 $x403802 $x525996 $x204773 $x523666 (<= ?E1 1.0) (>= ?E1 1.0) $x482167 $x466806 $x421542 $x382201 $x366180 $x837632 (<= ?I1 2.0) (>= ?I1 2.0) $x357550 $x312750 (<= ?K1 456.0) (>= ?K1 456.0) $x302793 $x231818)))
(let (($x358079 (>= ?K1 ?R)))
(let (($x543766 (<= ?K1 ?R)))
(let (($x157288 (>= ?I1 ?P)))
(let (($x386459 (<= ?I1 ?P)))
(let (($x623985 (>= ?E1 ?L)))
(let (($x423236 (<= ?E1 ?L)))
(let (($x106005 (and ?Z1 (not ?E2) $x130280 $x241616 $x265979 $x592865 $x234096 $x570243 $x388352 $x838977 $x403191 $x254012 $x688846 $x838831 $x202421 $x463167 $x538579 $x174518 $x685761 $x810473 $x403802 $x525996 (<= ?D1 1.0) (>= ?D1 1.0) $x423236 $x623985 (<= ?F1 1.0) (>= ?F1 1.0) $x421542 $x382201 $x366180 $x837632 $x386459 $x157288 $x357550 $x312750 $x543766 $x358079 $x302793 $x231818)))
(let (($x314650 (not ?L2)))
(let (($x314881 (and ?G2 $x314650 $x130280 $x241616 $x265979 $x592865 $x234096 $x570243 $x388352 $x838977 $x403191 $x254012 $x688846 $x838831 $x202421 $x463167 $x538579 $x174518 $x685761 $x810473 (<= ?C1 1.0) (>= ?C1 1.0) $x204773 $x523666 $x423236 $x623985 $x482167 $x466806 $x421542 $x382201 (<= ?H1 0.0) (>= ?H1 0.0) $x386459 $x157288 $x357550 $x312750 $x543766 $x358079 $x302793 $x231818)))
(let (($x625190 (not ?S2)))
(let (($x297245 (and ?N2 $x625190 $x130280 $x241616 $x265979 $x592865 $x234096 $x570243 $x388352 $x838977 $x403191 $x254012 $x688846 $x838831 $x202421 $x463167 $x538579 $x174518 (<= ?B1 1.0) (>= ?B1 1.0) $x403802 $x525996 $x204773 $x523666 $x423236 $x623985 $x482167 $x466806 $x421542 $x382201 $x366180 $x837632 $x386459 $x157288 (<= ?J1 1.0) (>= ?J1 1.0) $x543766 $x358079 (<= ?L1 123.0) (>= ?L1 123.0))))
(let (($x24862 (and ?U2 (not ?Z2) $x130280 $x241616 $x265979 $x592865 $x234096 $x570243 $x388352 $x838977 $x403191 $x254012 $x688846 $x838831 $x202421 $x463167 (<= ?A1 1.0) (>= ?A1 1.0) $x685761 $x810473 $x403802 $x525996 $x204773 $x523666 $x423236 $x623985 $x482167 $x466806 $x421542 $x382201 $x366180 $x837632 $x386459 $x157288 $x357550 $x312750 $x543766 $x358079 $x302793 $x231818)))
(let (($x19330 (and ?B3 (not ?G3) $x130280 $x241616 $x265979 $x592865 $x234096 $x570243 $x388352 $x838977 $x403191 $x254012 $x688846 $x838831 (<= ?Z 1.0) (>= ?Z 1.0) $x538579 $x174518 $x685761 $x810473 $x403802 $x525996 $x204773 $x523666 $x423236 $x623985 $x482167 $x466806 $x421542 $x382201 $x366180 $x837632 $x386459 $x157288 $x357550 $x312750 $x543766 $x358079 $x302793 $x231818)))
(let (($x540778 (and ?I3 (not ?N3) $x130280 $x241616 $x265979 $x592865 $x234096 $x570243 $x388352 $x838977 $x403191 $x254012 (<= ?Y 1.0) (>= ?Y 1.0) $x202421 $x463167 $x538579 $x174518 $x685761 $x810473 $x403802 $x525996 $x204773 $x523666 $x423236 $x623985 $x482167 $x466806 $x421542 $x382201 (<= ?H1 666.0) (>= ?H1 666.0) $x386459 $x157288 $x357550 $x312750 $x543766 $x358079 $x302793 $x231818)))
(let (($x813643 (not ?U3)))
(let (($x374785 (and ?P3 $x813643 $x130280 $x241616 $x265979 $x592865 $x234096 $x570243 $x388352 $x838977 (<= ?X 1.0) (>= ?X 1.0) $x688846 $x838831 $x202421 $x463167 $x538579 $x174518 $x685761 $x810473 $x403802 $x525996 $x204773 $x523666 $x423236 $x623985 $x482167 $x466806 $x421542 $x382201 $x366180 $x837632 $x386459 $x157288 $x357550 $x312750 $x543766 $x358079 $x302793 $x231818)))
(let (($x382130 (not ?B4)))
(let (($x386070 (and ?W3 $x382130 $x130280 $x241616 $x265979 $x592865 $x234096 $x570243 (<= ?W 1.0) (>= ?W 1.0) $x403191 $x254012 $x688846 $x838831 $x202421 $x463167 $x538579 $x174518 $x685761 $x810473 $x403802 $x525996 $x204773 $x523666 $x423236 $x623985 $x482167 $x466806 $x421542 $x382201 $x366180 $x837632 $x386459 $x157288 $x357550 $x312750 $x543766 $x358079 $x302793 $x231818)))
(let (($x439318 (and ?D4 (not ?I4) $x130280 $x241616 $x265979 $x592865 (<= ?V 1.0) (>= ?V 1.0) $x388352 $x838977 $x403191 $x254012 $x688846 $x838831 $x202421 $x463167 $x538579 $x174518 $x685761 $x810473 $x403802 $x525996 $x204773 $x523666 $x423236 $x623985 $x482167 $x466806 (<= ?G1 777.0) (>= ?G1 777.0) $x366180 $x837632 $x386459 $x157288 $x357550 $x312750 $x543766 $x358079 $x302793 $x231818)))
(let (($x179041 (and ?K4 (not ?N4) $x130280 $x241616 (<= ?U 1.0) (>= ?U 1.0) $x234096 $x570243 $x388352 $x838977 $x403191 $x254012 $x688846 $x838831 $x202421 $x463167 $x538579 $x174518 $x685761 $x810473 $x403802 $x525996 $x204773 $x523666 $x423236 $x623985 $x482167 $x466806 $x421542 $x382201 $x366180 $x837632 $x386459 $x157288 $x357550 $x312750 $x543766 $x358079 $x302793 $x231818)))
(let (($x802593 (|cp-rel-bb.i| ?A ?B ?C ?D ?E ?F ?G ?H ?I ?J ?K ?L ?M ?N ?O ?P ?Q ?R ?S)))
(let (($x510490 (and $x802593 (= ?M4 (= ?B 0.0)) (= ?I4 (= ?Y4 0.0)) (= ?F4 (= ?C 0.0)) (= ?B4 (= ?X4 0.0)) (= ?Y3 (= ?D 0.0)) (= ?U3 (= ?W4 0.0)) (= ?R3 (= ?E 0.0)) (= ?N3 (= ?V4 0.0)) (= ?K3 (= ?F 0.0)) (= ?G3 (= ?U4 0.0)) (= ?D3 (= ?G 0.0)) (= ?Z2 (= ?T4 0.0)) (= ?W2 (= ?H 0.0)) (= ?S2 (= ?S4 0.0)) (= ?P2 (= ?I 0.0)) (= ?L2 (= ?R4 0.0)) (= ?I2 (= ?J 0.0)) (= ?E2 (= ?Q4 0.0)) (= ?B2 (= ?K 0.0)) (= ?V1 (= ?P4 0.0)) (= ?S1 (= ?L 0.0)) (= ?O4 (+ 1.0 ?A)) (= ?P1 (not (<= ?A 3.0))) (or $x179041 $x439318 $x386070 $x374785 $x540778 $x19330 $x24862 $x297245 $x314881 $x106005 $x37808) (or (not ?K4) ?L4) (or (not ?K4) (and ?G4 ?L4 ?M4)) (or (not ?G4) (and ?H4 (not ?J4)) (and ?J4 (not ?H4))) (or (not ?G4) (and ?D4 ?H4 ?I4) (and ?Z3 ?J4 (not ?F4))) $x545036 (or $x802206 (and ?Z3 ?E4 ?F4)) (or (not ?Z3) (and ?A4 (not ?C4)) (and ?C4 (not ?A4))) (or (not ?Z3) (and ?W3 ?A4 ?B4) (and ?S3 ?C4 (not ?Y3))) (or (not ?W3) ?X3) (or (not ?W3) (and ?S3 ?X3 ?Y3)) (or (not ?S3) (and ?T3 (not ?V3)) (and ?V3 (not ?T3))) (or (not ?S3) (and ?P3 ?T3 ?U3) (and ?L3 ?V3 (not ?R3))) $x149881 (or $x271771 (and ?L3 ?Q3 ?R3)) (or (not ?L3) (and ?M3 (not ?O3)) (and ?O3 (not ?M3))) (or (not ?L3) (and ?I3 ?M3 ?N3) (and ?E3 ?O3 (not ?K3))) (or (not ?I3) ?J3) (or (not ?I3) (and ?E3 ?J3 ?K3)) (or (not ?E3) (and ?F3 (not ?H3)) (and ?H3 (not ?F3))) (or (not ?E3) (and ?B3 ?F3 ?G3) (and ?X2 ?H3 (not ?D3))) (or (not ?B3) ?C3) (or (not ?B3) (and ?X2 ?C3 ?D3)) (or (not ?X2) (and ?Y2 (not ?A3)) (and ?A3 (not ?Y2))) (or (not ?X2) (and ?U2 ?Y2 ?Z2) (and ?Q2 ?A3 (not ?W2))) (or (not ?U2) ?V2) (or (not ?U2) (and ?Q2 ?V2 ?W2)) (or (not ?Q2) (and ?R2 (not ?T2)) (and ?T2 (not ?R2))) (or (not ?Q2) (and ?N2 ?R2 ?S2) (and ?J2 ?T2 (not ?P2))) (or (not ?N2) ?O2) (or (not ?N2) (and ?J2 ?O2 ?P2)) (or (not ?J2) (and ?K2 (not ?M2)) (and ?M2 (not ?K2))) (or (not ?J2) (and ?G2 ?K2 ?L2) (and ?C2 ?M2 (not ?I2))) (or (not ?G2) ?H2) (or (not ?G2) (and ?C2 ?H2 ?I2)) (or (not ?C2) (and ?D2 (not ?F2)) (and ?F2 (not ?D2))) (or (not ?C2) (and ?Z1 ?D2 ?E2) (and ?T1 ?F2 (not ?B2))) (or (not ?Z1) ?A2) (or (not ?Z1) (and ?T1 ?A2 ?B2)) (or (not ?X1) ?Y1) (or (not ?X1) (and ?Q1 ?Y1 (not ?V1))) (or (not ?T1) (and ?U1 (not ?W1)) (and ?W1 (not ?U1))) (or (not ?T1) (and ?Q1 ?U1 ?V1) (and ?M1 ?W1 (not ?S1))) (or (not ?Q1) ?R1) (or (not ?Q1) (and ?M1 ?R1 ?S1)) (or (not ?M1) ?O1) (or (not ?M1) (and ?N1 ?O1 (not ?P1))) (= ?N4 (= ?Z4 0.0)))))
(=> $x510490 $x175192))))))))))))))))))))))))))))))))))))))))))))))))))))))))))))))
)
(assert (forall ((?A Real) (?B Real) (?C Real) (?D Real) (?E Real) (?F Real) (?G Real) (?H Real) (?I Real) (?J Real) (?K Real) (?L Real) (?M Real) (?N Real) (?O Real) (?P Real) (?Q Real) (?R Real) (?S Real) (?T Bool) (?U Bool) (?V Bool) (?W Bool) (?X Bool) (?Y Bool) (?Z Bool) (?A1 Bool) (?B1 Bool) (?C1 Bool) (?D1 Bool) (?E1 Bool) (?F1 Bool) (?G1 Bool) (?H1 Bool) (?I1 Bool) (?J1 Bool) (?K1 Bool) (?L1 Bool) (?M1 Bool) (?N1 Bool) (?O1 Bool) (?P1 Bool) (?Q1 Bool) (?R1 Bool) (?S1 Bool) (?T1 Bool) (?U1 Bool) (?V1 Bool) (?W1 Bool) (?X1 Bool) (?Y1 Bool) (?Z1 Bool) (?A2 Bool) (?B2 Bool) (?C2 Bool) (?D2 Bool) (?E2 Bool) (?F2 Bool) (?G2 Bool) (?H2 Bool) (?I2 Bool) (?J2 Bool) (?K2 Bool) (?L2 Bool) (?M2 Bool) (?N2 Bool) (?O2 Bool) (?P2 Bool) (?Q2 Bool) (?R2 Bool) (?S2 Bool) (?T2 Bool) (?U2 Bool) (?V2 Bool) (?W2 Bool) (?X2 Bool) (?Y2 Bool) (?Z2 Bool) (?A3 Bool) (?B3 Bool) (?C3 Bool) (?D3 Bool) (?E3 Bool) (?F3 Bool) (?G3 Bool) (?H3 Bool) (?I3 Bool) (?J3 Bool) (?K3 Bool) (?L3 Bool) (?M3 Bool) (?N3 Bool) (?O3 Bool) (?P3 Bool) (?Q3 Bool) (?R3 Bool) (?S3 Bool) (?T3 Real) (?U3 Real) (?V3 Real) (?W3 Real) (?X3 Real) (?Y3 Real) (?Z3 Real) (?A4 Real) (?B4 Real) (?C4 Real) (?D4 Real) (?E4 Real) (?F4 Bool) (?G4 Real) (?H4 Bool) (?I4 Real) (?J4 Bool) (?K4 Real) (?L4 Real) (?M4 Bool) (?N4 Bool) (?O4 Bool) (?P4 Bool) (?Q4 Bool) (?R4 Bool) (?S4 Bool) (?T4 Bool) (?U4 Bool) (?V4 Bool) (?W4 Bool) (?X4 Bool) (?Y4 Bool) (?Z4 Bool) (?A5 Bool) (?B5 Bool) (?C5 Bool) (?D5 Real) (?E5 Real) (?F5 Bool) (?G5 Bool) (?H5 Real) (?I5 Real) (?J5 Bool) (?K5 Bool) (?L5 Bool) (?M5 Bool) (?N5 Bool) (?O5 Bool) (?P5 Bool) (?Q5 Bool) (?R5 Bool) (?S5 Bool) (?T5 Bool) (?U5 Bool) (?V5 Bool) (?W5 Bool) (?X5 Bool) (?Y5 Bool) (?Z5 Bool) (?A6 Bool) (?B6 Bool) (?C6 Bool) (?D6 Bool) (?E6 Bool) (?F6 Bool) (?G6 Bool) (?H6 Bool) (?I6 Bool) (?J6 Bool) (?K6 Bool) (?L6 Bool) (?M6 Bool) (?N6 Bool) (?O6 Bool) (?P6 Bool) (?Q6 Bool) (?R6 Bool) (?S6 Bool) (?T6 Bool) (?U6 Real) (?V6 Bool) (?W6 Real) (?X6 Bool) (?Y6 Bool) (?Z6 Bool) (?A7 Bool) (?B7 Bool) (?C7 Bool) (?D7 Bool) (?E7 Bool) (?F7 Real) (?G7 Bool) (?H7 Bool) (?I7 Bool) (?J7 Bool) (?K7 Bool) (?L7 Bool) (?M7 Bool) (?N7 Real) (?O7 Real) (?P7 Bool) (?Q7 Bool) (?R7 Bool) (?S7 Real) (?T7 Bool) (?U7 Bool) (?V7 Bool) (?W7 Bool) (?X7 Bool) (?Y7 Bool) (?Z7 Bool) (?A8 Bool) )(let (($x210906 (|cp-rel-__UFO__0| ?A ?B ?C ?D ?E ?F ?G ?H ?I ?J ?K ?L ?M ?N ?O ?P ?Q ?R ?S ?F4 ?G4 ?H4 ?I4 ?J4 ?K4 ?L4)))
(let (($x332907 (not ?M4)))
(let (($x303872 (or $x332907 (and ?P3 ?N4 ?S3) (and ?L3 ?O4 (not ?R3)) (and ?U ?P4 ?W))))
(let (($x856119 (or $x332907 (and ?N4 (not ?O4) (not ?P4)) (and ?O4 (not ?N4) (not ?P4)) (and ?P4 (not ?N4) (not ?O4)))))
(let (($x422963 (not ?S4)))
(let (($x72286 (or $x422963 (and ?T4 (not ?V4)) (and ?V4 (not ?T4)))))
(let (($x523158 (not ?W4)))
(let (($x337455 (or $x523158 (and ?S4 ?X4 ?Y4))))
(let (($x53812 (or $x523158 ?X4)))
(let (($x631892 (and ?Z4 ?F5 ?G5 (<= ?D5 ?H5) (>= ?D5 ?H5) (<= ?E5 ?I5) (>= ?E5 ?I5))))
(let (($x510729 (and ?W4 ?C5 ?H4 (<= ?D5 ?I4) (>= ?D5 ?I4) (<= ?E5 ?G4) (>= ?E5 ?G4))))
(let (($x121954 (and ?Z4 ?Q5 (not ?G5) (<= ?K4 ?I4) (>= ?K4 ?I4) (<= ?L4 ?G4) (>= ?L4 ?G4))))
(let (($x238567 (not ?H4)))
(let (($x14228 (and ?W4 ?P5 $x238567 (<= ?K4 ?I4) (>= ?K4 ?I4) (<= ?L4 ?G4) (>= ?L4 ?G4))))
(let (($x598433 (and ?B5 ?O5 ?L5 (<= ?K4 ?D5) (>= ?K4 ?D5) (<= ?L4 ?E5) (>= ?L4 ?E5))))
(let (($x494565 (and ?J5 ?N5 (<= ?K4 ?D5) (>= ?K4 ?D5) (<= ?L4 ?E5) (>= ?L4 ?E5))))
(let (($x314650 (not ?M5)))
(let (($x537691 (or $x314650 (and ?N5 (not ?O5) (not ?P5) (not ?Q5)) (and ?O5 (not ?N5) (not ?P5) (not ?Q5)) (and ?P5 (not ?N5) (not ?O5) (not ?Q5)) (and ?Q5 (not ?N5) (not ?O5) (not ?P5)))))
(let (($x649785 (not ?E6)))
(let (($x475087 (not ?S6)))
(let (($x229540 (or $x475087 (and ?P6 ?T6 (<= ?U6 0.0) (>= ?U6 0.0)) (and ?L6 ?V6 ?R6 (<= ?U6 ?W6) (>= ?U6 ?W6)) (and ?I6 ?X6 ?O6 (<= ?U6 ?W6) (>= ?U6 ?W6)) (and ?W5 ?Y6 ?G6 (<= ?U6 ?W6) (>= ?U6 ?W6)))))
(let (($x323009 (or $x475087 (and ?T6 (not ?V6) (not ?X6) (not ?Y6)) (and ?V6 (not ?T6) (not ?X6) (not ?Y6)) (and ?X6 (not ?T6) (not ?V6) (not ?Y6)) (and ?Y6 (not ?T6) (not ?V6) (not ?X6)))))
(let (($x240831 (|cp-rel-bb.i| ?A ?B ?C ?D ?E ?F ?G ?H ?I ?J ?K ?L ?M ?N ?O ?P ?Q ?R ?S)))
(let (($x637336 (and $x240831 (= ?A8 (= ?R 0.0)) (= ?Z7 (not ?Y7)) (= ?Y7 (and ?X7 ?F4)) (= ?X7 (= ?U6 0.0)) (= ?R6 (or ?W7 ?V7)) (= ?W7 (not (= ?N ?S7))) (= ?V7 (= ?S7 0.0)) (= ?O6 (= ?W6 0.0)) (= ?K6 (or ?U7 ?T7)) (= ?U7 (not (= ?N ?S7))) (= ?T7 (= ?S7 0.0)) (= ?D6 (= ?W6 1.0)) (= ?G6 (= ?W6 0.0)) (= ?Y5 (not (<= 1.0 ?W6))) (= ?W6 (ite ?R7 ?K4 1.0)) (= ?S7 (ite ?R7 ?L4 ?S)) (= ?R7 (or ?Q7 ?P7)) (= ?Q7 (= ?S 0.0)) (= ?P7 (not (= ?Q 1.0))) (= ?O7 (ite ?J4 ?N ?O)) (= ?T5 (= ?M 0.0)) (= ?L5 (= ?N7 0.0)) (= ?N7 (ite ?M7 ?S 0.0)) (= ?M7 (= ?Q 1.0)) (= ?I5 (ite ?K7 ?G4 0.0)) (= ?H5 (ite ?K7 ?I4 0.0)) (= ?G5 (or ?H4 ?L7)) (= ?L7 (not ?K7)) (= ?K7 (or ?J7 ?H4)) (= ?J7 (or ?I7 ?J4)) (= ?I7 (not (= ?O ?G4))) (= ?Y4 (or ?H4 ?J4)) (= ?J4 (= ?O 0.0)) (= ?U4 (or ?H7 ?G7)) (= ?H7 (not (= ?O ?G4))) (= ?G7 (= ?O 0.0)) (= ?F7 (ite ?H4 1.0 0.0)) (= ?H4 (= ?G4 0.0)) (= ?G4 (ite ?F4 ?R 0.0)) (= ?F4 (= ?P 2.0)) (= ?S3 (= ?E4 0.0)) (= ?R3 (= ?B 0.0)) (= ?N3 (= ?D4 0.0)) (= ?K3 (= ?C 0.0)) (= ?G3 (= ?C4 0.0)) (= ?D3 (= ?D 0.0)) (= ?Z2 (= ?B4 0.0)) (= ?W2 (= ?E 0.0)) (= ?S2 (= ?A4 0.0)) (= ?P2 (= ?F 0.0)) (= ?L2 (= ?Z3 0.0)) (= ?I2 (= ?G 0.0)) (= ?E2 (= ?Y3 0.0)) (= ?B2 (= ?H 0.0)) (= ?X1 (= ?X3 0.0)) (= ?U1 (= ?I 0.0)) (= ?Q1 (= ?W3 0.0)) (= ?N1 (= ?J 0.0)) (= ?J1 (= ?V3 0.0)) (= ?G1 (= ?K 0.0)) (= ?C1 (= ?U3 0.0)) (= ?Z (= ?L 0.0)) (= ?T3 (+ 1.0 ?A)) (= ?W (not (<= ?A 3.0))) (or ?C7 (and ?M5 ?T5)) (or (not ?C7) (and ?D7 (not ?E7)) (and ?E7 (not ?D7))) (or (not ?C7) (and ?Z6 ?D7) (and ?S6 ?E7 ?B7)) (or (not ?Z6) ?A7) (or (not ?Z6) (and ?S6 ?A7 (not ?B7))) $x323009 $x229540 (or (not ?P6) ?Q6) (or (not ?P6) (and ?L6 ?Q6 (not ?R6))) (or (not ?L6) (and ?M6 (not ?N6)) (and ?N6 (not ?M6))) (or (not ?L6) (and ?E6 ?M6) (and ?I6 ?N6 (not ?O6))) (or (not ?I6) ?J6) (or (not ?I6) (and ?B6 ?J6 (not ?K6))) (or $x649785 (and ?F6 (not ?H6)) (and ?H6 (not ?F6))) (or $x649785 (and ?W5 ?F6 (not ?G6)) (and ?Z5 ?H6 (not ?D6))) (or (not ?B6) ?C6) (or (not ?B6) (and ?Z5 ?C6 ?D6)) (or (not ?Z5) ?A6) (or (not ?Z5) (and ?U5 ?A6 (not ?Y5))) (or (not ?W5) ?X5) (or (not ?W5) (and ?U5 ?X5 ?Y5)) (or (not ?U5) ?V5) (or (not ?U5) (and ?R5 ?V5)) (or (not ?R5) ?S5) (or (not ?R5) (and ?M5 ?S5 (not ?T5))) $x537691 (or $x314650 $x494565 $x598433 $x14228 $x121954) (or (not ?J5) ?K5) (or (not ?J5) (and ?B5 ?K5 (not ?L5))) (or (not ?B5) (and ?C5 (not ?F5)) (and ?F5 (not ?C5))) (or (not ?B5) $x510729 $x631892) (or (not ?Z4) ?A5) (or (not ?Z4) (and ?S4 ?A5 (not ?Y4))) $x53812 $x337455 $x72286 (or $x422963 (and ?Q4 ?T4 (not ?U4)) (and ?M4 ?V4 ?H4)) (or (not ?Q4) ?R4) (or (not ?Q4) (and ?M4 ?R4 $x238567)) $x856119 $x303872 (or (not ?P3) ?Q3) (or (not ?P3) (and ?L3 ?Q3 ?R3)) (or (not ?L3) (and ?M3 (not ?O3)) (and ?O3 (not ?M3))) (or (not ?L3) (and ?I3 ?M3 ?N3) (and ?E3 ?O3 (not ?K3))) (or (not ?I3) ?J3) (or (not ?I3) (and ?E3 ?J3 ?K3)) (or (not ?E3) (and ?F3 (not ?H3)) (and ?H3 (not ?F3))) (or (not ?E3) (and ?B3 ?F3 ?G3) (and ?X2 ?H3 (not ?D3))) (or (not ?B3) ?C3) (or (not ?B3) (and ?X2 ?C3 ?D3)) (or (not ?X2) (and ?Y2 (not ?A3)) (and ?A3 (not ?Y2))) (or (not ?X2) (and ?U2 ?Y2 ?Z2) (and ?Q2 ?A3 (not ?W2))) (or (not ?U2) ?V2) (or (not ?U2) (and ?Q2 ?V2 ?W2)) (or (not ?Q2) (and ?R2 (not ?T2)) (and ?T2 (not ?R2))) (or (not ?Q2) (and ?N2 ?R2 ?S2) (and ?J2 ?T2 (not ?P2))) (or (not ?N2) ?O2) (or (not ?N2) (and ?J2 ?O2 ?P2)) (or (not ?J2) (and ?K2 (not ?M2)) (and ?M2 (not ?K2))) (or (not ?J2) (and ?G2 ?K2 ?L2) (and ?C2 ?M2 (not ?I2))) (or (not ?G2) ?H2) (or (not ?G2) (and ?C2 ?H2 ?I2)) (or (not ?C2) (and ?D2 (not ?F2)) (and ?F2 (not ?D2))) (or (not ?C2) (and ?Z1 ?D2 ?E2) (and ?V1 ?F2 (not ?B2))) (or (not ?Z1) ?A2) (or (not ?Z1) (and ?V1 ?A2 ?B2)) (or (not ?V1) (and ?W1 (not ?Y1)) (and ?Y1 (not ?W1))) (or (not ?V1) (and ?S1 ?W1 ?X1) (and ?O1 ?Y1 (not ?U1))) (or (not ?S1) ?T1) (or (not ?S1) (and ?O1 ?T1 ?U1)) (or (not ?O1) (and ?P1 (not ?R1)) (and ?R1 (not ?P1))) (or (not ?O1) (and ?L1 ?P1 ?Q1) (and ?H1 ?R1 (not ?N1))) (or (not ?L1) ?M1) (or (not ?L1) (and ?H1 ?M1 ?N1)) (or (not ?H1) (and ?I1 (not ?K1)) (and ?K1 (not ?I1))) (or (not ?H1) (and ?E1 ?I1 ?J1) (and ?A1 ?K1 (not ?G1))) (or (not ?E1) ?F1) (or (not ?E1) (and ?A1 ?F1 ?G1)) (or (not ?A1) (and ?B1 (not ?D1)) (and ?D1 (not ?B1))) (or (not ?A1) (and ?X ?B1 ?C1) (and ?T ?D1 (not ?Z))) (or (not ?X) ?Y) (or (not ?X) (and ?T ?Y ?Z)) (or (not ?T) ?V) (or (not ?T) (and ?U ?V (not ?W))) (= ?B7 (or ?A8 ?Z7)))))
(=> $x637336 $x210906))))))))))))))))))))))))))
)
(assert (forall ((?A Bool) (?B Real) (?C Bool) (?D Real) (?E Bool) (?F Real) (?G Real) (?H Real) (?I Real) (?J Real) (?K Real) (?L Real) (?M Real) (?N Real) (?O Real) (?P Real) (?Q Real) (?R Real) (?S Real) (?T Real) (?U Real) (?V Real) (?W Real) (?X Real) (?Y Real) (?Z Real) (?A1 Bool) )(let (($x335673 (|cp-rel-__UFO__0| ?H ?I ?J ?K ?L ?M ?N ?O ?P ?Q ?R ?S ?T ?U ?V ?W ?X ?Y ?Z ?A ?B ?C ?D ?E ?F ?G)))
(=> (and $x335673 (= ?A1 true)) $x335673)))
)
(assert (forall ((?A Real) (?B Real) (?C Real) (?D Real) (?E Real) (?F Real) (?G Real) (?H Real) (?I Real) (?J Real) (?K Real) (?L Real) (?M Real) (?N Real) (?O Real) (?P Real) (?Q Real) (?R Real) (?S Real) (?T Bool) (?U Bool) (?V Bool) (?W Bool) (?X Bool) (?Y Bool) (?Z Bool) (?A1 Bool) (?B1 Bool) (?C1 Bool) (?D1 Bool) (?E1 Bool) (?F1 Bool) (?G1 Bool) (?H1 Bool) (?I1 Bool) (?J1 Bool) (?K1 Bool) (?L1 Bool) (?M1 Bool) (?N1 Bool) (?O1 Bool) (?P1 Bool) (?Q1 Bool) (?R1 Bool) (?S1 Bool) (?T1 Bool) (?U1 Bool) (?V1 Bool) (?W1 Bool) (?X1 Bool) (?Y1 Bool) (?Z1 Bool) (?A2 Bool) (?B2 Bool) (?C2 Bool) (?D2 Bool) (?E2 Bool) (?F2 Bool) (?G2 Bool) (?H2 Bool) (?I2 Bool) (?J2 Bool) (?K2 Bool) (?L2 Bool) (?M2 Bool) (?N2 Bool) (?O2 Bool) (?P2 Bool) (?Q2 Bool) (?R2 Bool) (?S2 Bool) (?T2 Bool) (?U2 Bool) (?V2 Bool) (?W2 Bool) (?X2 Bool) (?Y2 Bool) (?Z2 Bool) (?A3 Bool) (?B3 Bool) (?C3 Bool) (?D3 Bool) (?E3 Bool) (?F3 Bool) (?G3 Bool) (?H3 Bool) (?I3 Bool) (?J3 Bool) (?K3 Bool) (?L3 Bool) (?M3 Bool) (?N3 Bool) (?O3 Bool) (?P3 Bool) (?Q3 Bool) (?R3 Bool) (?S3 Bool) (?T3 Real) (?U3 Real) (?V3 Real) (?W3 Real) (?X3 Real) (?Y3 Real) (?Z3 Real) (?A4 Real) (?B4 Real) (?C4 Real) (?D4 Real) (?E4 Real) (?F4 Bool) (?G4 Real) (?H4 Bool) (?I4 Real) (?J4 Bool) (?K4 Real) (?L4 Real) (?M4 Bool) (?N4 Bool) (?O4 Bool) (?P4 Bool) (?Q4 Bool) (?R4 Bool) (?S4 Bool) (?T4 Bool) (?U4 Bool) (?V4 Bool) (?W4 Bool) (?X4 Bool) (?Y4 Bool) (?Z4 Bool) (?A5 Bool) (?B5 Bool) (?C5 Bool) (?D5 Real) (?E5 Real) (?F5 Bool) (?G5 Bool) (?H5 Real) (?I5 Real) (?J5 Bool) (?K5 Bool) (?L5 Bool) (?M5 Bool) (?N5 Bool) (?O5 Bool) (?P5 Bool) (?Q5 Bool) (?R5 Bool) (?S5 Bool) (?T5 Bool) (?U5 Bool) (?V5 Bool) (?W5 Bool) (?X5 Bool) (?Y5 Bool) (?Z5 Bool) (?A6 Bool) (?B6 Bool) (?C6 Bool) (?D6 Real) (?E6 Real) (?F6 Bool) (?G6 Bool) (?H6 Bool) (?I6 Bool) (?J6 Bool) (?K6 Bool) (?L6 Bool) (?M6 Real) (?N6 Real) (?O6 Bool) (?P6 Bool) (?Q6 Bool) (?R6 Real) (?S6 Bool) (?T6 Bool) )(let (($x422963 (not ?L3)))
(let (($x72286 (or $x422963 (and ?M3 (not ?O3)) (and ?O3 (not ?M3)))))
(let (($x523158 (not ?P3)))
(let (($x337455 (or $x523158 (and ?L3 ?Q3 ?R3))))
(let (($x53812 (or $x523158 ?Q3)))
(let (($x625190 (not ?M4)))
(let (($x160486 (or $x625190 (and ?P3 ?N4 ?S3) (and ?L3 ?O4 (not ?R3)) (and ?U ?P4 ?W))))
(let (($x359024 (or $x625190 (and ?N4 (not ?O4) (not ?P4)) (and ?O4 (not ?N4) (not ?P4)) (and ?P4 (not ?N4) (not ?O4)))))
(let (($x329075 (and ?Z4 ?F5 ?G5 (<= ?D5 ?H5) (>= ?D5 ?H5) (<= ?E5 ?I5) (>= ?E5 ?I5))))
(let (($x162789 (and ?W4 ?C5 ?H4 (<= ?D5 ?I4) (>= ?D5 ?I4) (<= ?E5 ?G4) (>= ?E5 ?G4))))
(let (($x86395 (not ?B5)))
(let (($x271771 (not ?J5)))
(let (($x149881 (or $x271771 ?K5)))
(let (($x570427 (not ?G5)))
(let (($x6027 (and ?Z4 ?Q5 $x570427 (<= ?K4 ?I4) (>= ?K4 ?I4) (<= ?L4 ?G4) (>= ?L4 ?G4))))
(let (($x85362 (not ?H4)))
(let (($x159149 (and ?W4 ?P5 $x85362 (<= ?K4 ?I4) (>= ?K4 ?I4) (<= ?L4 ?G4) (>= ?L4 ?G4))))
(let (($x386929 (and ?B5 ?O5 ?L5 (<= ?K4 ?D5) (>= ?K4 ?D5) (<= ?L4 ?E5) (>= ?L4 ?E5))))
(let (($x305888 (and ?J5 ?N5 (<= ?K4 ?D5) (>= ?K4 ?D5) (<= ?L4 ?E5) (>= ?L4 ?E5))))
(let (($x596979 (not ?M5)))
(let (($x210132 (or $x596979 (and ?N5 (not ?O5) (not ?P5) (not ?Q5)) (and ?O5 (not ?N5) (not ?P5) (not ?Q5)) (and ?P5 (not ?N5) (not ?O5) (not ?Q5)) (and ?Q5 (not ?N5) (not ?O5) (not ?P5)))))
(let (($x802206 (not ?X5)))
(let (($x545036 (or $x802206 ?Y5)))
(let (($x299343 (|cp-rel-bb.i| ?A ?B ?C ?D ?E ?F ?G ?H ?I ?J ?K ?L ?M ?N ?O ?P ?Q ?R ?S)))
(let (($x173889 (and $x299343 (= ?T6 (not (= ?N ?R6))) (= ?S6 (= ?R6 0.0)) (= ?B6 (= ?D6 1.0)) (= ?W5 (not (<= 1.0 ?D6))) (= ?D6 (ite ?Q6 ?K4 1.0)) (= ?R6 (ite ?Q6 ?L4 ?S)) (= ?Q6 (or ?P6 ?O6)) (= ?P6 (= ?S 0.0)) (= ?O6 (not (= ?Q 1.0))) (= ?N6 (ite ?J4 ?N ?O)) (= ?T5 (= ?M 0.0)) (= ?L5 (= ?M6 0.0)) (= ?M6 (ite ?L6 ?S 0.0)) (= ?L6 (= ?Q 1.0)) (= ?I5 (ite ?J6 ?G4 0.0)) (= ?H5 (ite ?J6 ?I4 0.0)) (= ?G5 (or ?H4 ?K6)) (= ?K6 (not ?J6)) (= ?J6 (or ?I6 ?H4)) (= ?I6 (or ?H6 ?J4)) (= ?H6 (not (= ?O ?G4))) (= ?Y4 (or ?H4 ?J4)) (= ?J4 (= ?O 0.0)) (= ?U4 (or ?G6 ?F6)) (= ?G6 (not (= ?O ?G4))) (= ?F6 (= ?O 0.0)) (= ?E6 (ite ?H4 1.0 0.0)) (= ?H4 (= ?G4 0.0)) (= ?G4 (ite ?F4 ?R 0.0)) (= ?F4 (= ?P 2.0)) (= ?S3 (= ?E4 0.0)) (= ?R3 (= ?B 0.0)) (= ?N3 (= ?D4 0.0)) (= ?K3 (= ?C 0.0)) (= ?G3 (= ?C4 0.0)) (= ?D3 (= ?D 0.0)) (= ?Z2 (= ?B4 0.0)) (= ?W2 (= ?E 0.0)) (= ?S2 (= ?A4 0.0)) (= ?P2 (= ?F 0.0)) (= ?L2 (= ?Z3 0.0)) (= ?I2 (= ?G 0.0)) (= ?E2 (= ?Y3 0.0)) (= ?B2 (= ?H 0.0)) (= ?X1 (= ?X3 0.0)) (= ?U1 (= ?I 0.0)) (= ?Q1 (= ?W3 0.0)) (= ?N1 (= ?J 0.0)) (= ?J1 (= ?V3 0.0)) (= ?G1 (= ?K 0.0)) (= ?C1 (= ?U3 0.0)) (= ?Z (= ?L 0.0)) (= ?T3 (+ 1.0 ?A)) (= ?W (not (<= ?A 3.0))) (or (and ?Z5 ?C6) (and ?Q4 ?U4)) (or (not ?Z5) ?A6) (or (not ?Z5) (and ?X5 ?A6 ?B6)) $x545036 (or $x802206 (and ?U5 ?Y5 (not ?W5))) (or (not ?U5) ?V5) (or (not ?U5) (and ?R5 ?V5)) (or (not ?R5) ?S5) (or (not ?R5) (and ?M5 ?S5 (not ?T5))) $x210132 (or $x596979 $x305888 $x386929 $x159149 $x6027) $x149881 (or $x271771 (and ?B5 ?K5 (not ?L5))) (or $x86395 (and ?C5 (not ?F5)) (and ?F5 (not ?C5))) (or $x86395 $x162789 $x329075) (or (not ?Z4) ?A5) (or (not ?Z4) (and ?S4 ?A5 (not ?Y4))) (or (not ?W4) ?X4) (or (not ?W4) (and ?S4 ?X4 ?Y4)) (or (not ?S4) (and ?T4 (not ?V4)) (and ?V4 (not ?T4))) (or (not ?S4) (and ?Q4 ?T4 (not ?U4)) (and ?M4 ?V4 ?H4)) (or (not ?Q4) ?R4) (or (not ?Q4) (and ?M4 ?R4 $x85362)) $x359024 $x160486 $x53812 $x337455 $x72286 (or $x422963 (and ?I3 ?M3 ?N3) (and ?E3 ?O3 (not ?K3))) (or (not ?I3) ?J3) (or (not ?I3) (and ?E3 ?J3 ?K3)) (or (not ?E3) (and ?F3 (not ?H3)) (and ?H3 (not ?F3))) (or (not ?E3) (and ?B3 ?F3 ?G3) (and ?X2 ?H3 (not ?D3))) (or (not ?B3) ?C3) (or (not ?B3) (and ?X2 ?C3 ?D3)) (or (not ?X2) (and ?Y2 (not ?A3)) (and ?A3 (not ?Y2))) (or (not ?X2) (and ?U2 ?Y2 ?Z2) (and ?Q2 ?A3 (not ?W2))) (or (not ?U2) ?V2) (or (not ?U2) (and ?Q2 ?V2 ?W2)) (or (not ?Q2) (and ?R2 (not ?T2)) (and ?T2 (not ?R2))) (or (not ?Q2) (and ?N2 ?R2 ?S2) (and ?J2 ?T2 (not ?P2))) (or (not ?N2) ?O2) (or (not ?N2) (and ?J2 ?O2 ?P2)) (or (not ?J2) (and ?K2 (not ?M2)) (and ?M2 (not ?K2))) (or (not ?J2) (and ?G2 ?K2 ?L2) (and ?C2 ?M2 (not ?I2))) (or (not ?G2) ?H2) (or (not ?G2) (and ?C2 ?H2 ?I2)) (or (not ?C2) (and ?D2 (not ?F2)) (and ?F2 (not ?D2))) (or (not ?C2) (and ?Z1 ?D2 ?E2) (and ?V1 ?F2 (not ?B2))) (or (not ?Z1) ?A2) (or (not ?Z1) (and ?V1 ?A2 ?B2)) (or (not ?V1) (and ?W1 (not ?Y1)) (and ?Y1 (not ?W1))) (or (not ?V1) (and ?S1 ?W1 ?X1) (and ?O1 ?Y1 (not ?U1))) (or (not ?S1) ?T1) (or (not ?S1) (and ?O1 ?T1 ?U1)) (or (not ?O1) (and ?P1 (not ?R1)) (and ?R1 (not ?P1))) (or (not ?O1) (and ?L1 ?P1 ?Q1) (and ?H1 ?R1 (not ?N1))) (or (not ?L1) ?M1) (or (not ?L1) (and ?H1 ?M1 ?N1)) (or (not ?H1) (and ?I1 (not ?K1)) (and ?K1 (not ?I1))) (or (not ?H1) (and ?E1 ?I1 ?J1) (and ?A1 ?K1 (not ?G1))) (or (not ?E1) ?F1) (or (not ?E1) (and ?A1 ?F1 ?G1)) (or (not ?A1) (and ?B1 (not ?D1)) (and ?D1 (not ?B1))) (or (not ?A1) (and ?X ?B1 ?C1) (and ?T ?D1 (not ?Z))) (or (not ?X) ?Y) (or (not ?X) (and ?T ?Y ?Z)) (or (not ?T) ?V) (or (not ?T) (and ?U ?V (not ?W))) (= ?C6 (or ?T6 ?S6)))))
(=> $x173889 |cp-rel-UnifiedReturnBlock|)))))))))))))))))))))))))))
)
(assert (not cp-rel-UnifiedReturnBlock))
(check-sat)
